70
1200
35
0 3
0 6
0 8
0 11
0 13
0 15
0 16
0 17
0 18
0 19
0 20
0 22
0 23
0 26
0 28
0 31
0 33
0 36
0 37
0 40
0 41
0 44
0 45
0 51
0 52
0 54
0 55
0 56
0 57
0 59
0 62
0 64
0 65
1 7
1 8
1 9
1 10
1 12
1 13
1 16
1 19
1 21
1 22
1 25
1 26
1 27
1 28
1 30
1 35
1 37
1 40
1 41
1 42
1 44
1 46
1 48
1 50
1 51
1 52
1 54
1 55
1 56
1 57
1 61
1 64
1 66
1 69
2 3
2 5
2 6
2 9
2 10
2 11
2 15
2 16
2 17
2 20
2 22
2 24
2 26
2 27
2 28
2 31
2 32
2 34
2 35
2 37
2 38
2 39
2 40
2 45
2 46
2 48
2 49
2 51
2 56
2 60
2 62
2 63
2 64
2 65
2 66
2 68
3 4
3 6
3 7
3 10
3 12
3 16
3 17
3 18
3 22
3 23
3 27
3 28
3 31
3 36
3 37
3 38
3 41
3 42
3 43
3 44
3 45
3 48
3 53
3 54
3 56
3 57
3 58
3 59
3 60
3 63
3 64
3 67
4 6
4 8
4 9
4 14
4 18
4 20
4 21
4 22
4 27
4 29
4 30
4 31
4 33
4 35
4 36
4 38
4 42
4 43
4 46
4 47
4 53
4 54
4 56
4 57
4 58
4 63
4 65
4 66
4 68
4 69
5 7
5 8
5 11
5 12
5 14
5 15
5 17
5 19
5 23
5 26
5 30
5 31
5 32
5 38
5 39
5 45
5 47
5 48
5 50
5 51
5 56
5 57
5 59
5 60
5 61
5 66
5 68
6 10
6 11
6 12
6 13
6 15
6 16
6 18
6 24
6 26
6 29
6 30
6 31
6 32
6 33
6 35
6 36
6 38
6 39
6 42
6 43
6 46
6 47
6 50
6 51
6 52
6 53
6 55
6 59
6 63
7 10
7 12
7 15
7 17
7 18
7 19
7 20
7 24
7 27
7 28
7 29
7 31
7 32
7 34
7 38
7 41
7 42
7 44
7 46
7 47
7 48
7 49
7 50
7 51
7 52
7 56
7 59
7 64
7 65
7 66
7 68
7 69
8 9
8 10
8 11
8 12
8 14
8 16
8 17
8 19
8 21
8 22
8 24
8 26
8 29
8 30
8 33
8 35
8 37
8 39
8 40
8 43
8 45
8 47
8 49
8 50
8 51
8 53
8 58
8 61
8 62
8 63
8 64
8 65
8 66
8 67
8 68
9 11
9 12
9 14
9 15
9 17
9 18
9 20
9 23
9 27
9 29
9 31
9 32
9 33
9 35
9 36
9 41
9 48
9 49
9 50
9 52
9 57
9 59
9 60
9 61
9 62
9 63
9 64
9 65
9 67
9 68
9 69
10 16
10 20
10 21
10 23
10 24
10 25
10 30
10 31
10 33
10 39
10 44
10 45
10 47
10 52
10 53
10 55
10 56
10 57
10 58
10 59
10 60
10 61
10 65
10 66
10 67
10 68
10 69
11 14
11 15
11 18
11 19
11 22
11 23
11 25
11 29
11 32
11 36
11 38
11 39
11 42
11 43
11 45
11 46
11 47
11 49
11 50
11 54
11 55
11 59
11 61
11 65
11 66
11 67
12 13
12 15
12 18
12 22
12 23
12 24
12 25
12 28
12 30
12 31
12 32
12 33
12 35
12 38
12 41
12 42
12 45
12 46
12 48
12 51
12 57
12 58
12 61
12 62
12 66
12 67
12 68
13 14
13 20
13 22
13 26
13 27
13 29
13 33
13 34
13 36
13 38
13 39
13 42
13 44
13 45
13 46
13 48
13 49
13 51
13 52
13 53
13 54
13 56
13 57
13 59
13 60
13 61
13 62
13 65
13 66
14 16
14 17
14 19
14 20
14 22
14 23
14 24
14 25
14 29
14 32
14 34
14 37
14 39
14 40
14 42
14 43
14 45
14 46
14 47
14 48
14 49
14 50
14 52
14 54
14 56
14 57
14 58
14 59
14 67
14 69
15 16
15 17
15 18
15 19
15 21
15 23
15 24
15 28
15 30
15 32
15 33
15 34
15 35
15 36
15 37
15 41
15 42
15 43
15 44
15 45
15 46
15 49
15 51
15 52
15 60
15 61
15 63
15 66
15 68
16 17
16 18
16 23
16 27
16 33
16 34
16 35
16 36
16 38
16 40
16 42
16 46
16 47
16 49
16 52
16 53
16 55
16 56
16 57
16 59
16 60
16 61
16 62
16 63
16 64
16 65
16 66
16 68
17 18
17 22
17 27
17 29
17 33
17 39
17 46
17 47
17 49
17 50
17 52
17 53
17 55
17 57
17 61
17 62
17 64
17 67
17 68
17 69
18 20
18 22
18 23
18 27
18 29
18 30
18 32
18 35
18 36
18 37
18 38
18 40
18 41
18 43
18 44
18 45
18 48
18 49
18 50
18 53
18 54
18 55
18 60
18 61
18 64
18 68
18 69
19 20
19 21
19 22
19 23
19 25
19 27
19 29
19 30
19 32
19 36
19 39
19 40
19 41
19 42
19 43
19 45
19 47
19 48
19 49
19 50
19 52
19 53
19 55
19 58
19 59
19 60
19 61
19 67
19 69
20 21
20 23
20 24
20 27
20 28
20 31
20 32
20 33
20 37
20 39
20 40
20 41
20 43
20 44
20 45
20 46
20 48
20 49
20 50
20 51
20 53
20 58
20 59
20 61
20 62
20 64
20 66
21 22
21 25
21 26
21 27
21 30
21 31
21 33
21 35
21 39
21 40
21 41
21 45
21 46
21 50
21 56
21 57
21 59
21 61
21 63
21 64
21 66
21 67
21 68
21 69
22 23
22 24
22 25
22 26
22 27
22 31
22 34
22 39
22 40
22 41
22 44
22 46
22 48
22 49
22 52
22 55
22 59
22 60
22 62
22 63
22 64
22 65
22 66
22 67
22 68
22 69
23 25
23 32
23 34
23 35
23 36
23 37
23 39
23 42
23 43
23 46
23 49
23 51
23 52
23 53
23 54
23 55
23 58
23 59
23 60
23 64
23 66
23 67
23 68
23 69
24 25
24 27
24 28
24 30
24 33
24 34
24 39
24 40
24 41
24 45
24 47
24 50
24 52
24 53
24 56
24 57
24 58
24 61
24 63
24 65
24 68
24 69
25 28
25 29
25 33
25 35
25 38
25 42
25 44
25 46
25 48
25 49
25 52
25 53
25 54
25 55
25 59
25 60
25 61
25 62
25 64
25 66
25 68
26 27
26 30
26 35
26 38
26 39
26 40
26 41
26 42
26 44
26 45
26 49
26 51
26 53
26 55
26 56
26 60
26 62
26 64
27 28
27 29
27 32
27 33
27 34
27 35
27 37
27 39
27 41
27 42
27 46
27 47
27 48
27 49
27 51
27 52
27 53
27 54
27 55
27 57
27 61
27 62
27 63
27 68
28 30
28 32
28 35
28 36
28 38
28 39
28 40
28 42
28 44
28 45
28 46
28 51
28 54
28 57
28 60
28 64
28 66
28 67
28 68
28 69
29 30
29 32
29 37
29 42
29 43
29 44
29 45
29 51
29 56
29 59
29 61
29 62
29 64
29 65
29 66
29 67
30 31
30 32
30 33
30 34
30 43
30 44
30 47
30 53
30 55
30 56
30 58
30 60
30 61
30 63
30 64
30 65
30 66
30 68
31 32
31 34
31 36
31 37
31 39
31 40
31 42
31 45
31 49
31 53
31 55
31 57
31 58
31 61
31 64
31 65
31 66
31 67
31 69
32 35
32 36
32 40
32 42
32 46
32 49
32 50
32 52
32 53
32 55
32 58
32 60
32 65
32 69
33 34
33 36
33 37
33 38
33 40
33 41
33 45
33 49
33 51
33 52
33 54
33 56
33 59
33 61
33 62
33 63
33 64
33 65
34 35
34 36
34 37
34 41
34 43
34 47
34 49
34 51
34 52
34 56
34 57
34 58
34 63
34 66
34 68
34 69
35 36
35 39
35 44
35 45
35 46
35 47
35 48
35 49
35 50
35 52
35 53
35 54
35 55
35 56
35 57
35 58
35 60
35 62
35 64
35 66
35 68
35 69
36 37
36 38
36 41
36 43
36 44
36 52
36 54
36 58
36 59
36 61
36 63
36 64
36 66
36 67
36 68
37 38
37 40
37 42
37 46
37 50
37 51
37 53
37 58
37 59
37 61
37 62
37 64
37 65
37 66
37 67
37 69
38 39
38 40
38 43
38 45
38 46
38 48
38 49
38 50
38 52
38 53
38 54
38 55
38 56
38 58
38 60
38 61
38 63
39 40
39 43
39 44
39 46
39 51
39 52
39 53
39 54
39 55
39 56
39 57
39 59
39 62
39 63
39 64
39 67
39 68
39 69
40 41
40 42
40 46
40 47
40 48
40 51
40 52
40 54
40 55
40 60
40 61
40 62
40 65
40 66
40 68
40 69
41 42
41 44
41 48
41 50
41 55
41 57
41 58
41 59
41 62
41 63
41 64
41 65
41 66
41 67
41 68
41 69
42 43
42 45
42 46
42 48
42 49
42 53
42 55
42 56
42 58
42 61
42 63
42 65
42 66
42 68
43 44
43 46
43 48
43 49
43 50
43 51
43 55
43 56
43 57
43 58
43 60
43 61
43 63
43 64
43 65
43 66
43 67
43 68
44 45
44 46
44 48
44 49
44 52
44 53
44 54
44 55
44 56
44 60
44 61
44 65
44 68
45 47
45 50
45 51
45 52
45 53
45 55
45 56
45 59
45 60
45 62
45 68
46 47
46 49
46 51
46 52
46 53
46 54
46 55
46 56
46 57
46 66
46 67
47 48
47 50
47 54
47 56
47 60
47 64
47 66
48 49
48 51
48 52
48 53
48 54
48 64
48 65
48 67
48 69
49 54
49 55
49 56
49 57
49 60
49 62
49 64
49 65
49 67
49 68
49 69
50 51
50 52
50 53
50 54
50 59
50 63
50 64
51 52
51 55
51 56
51 59
51 60
51 61
51 64
51 66
51 68
51 69
52 54
52 55
52 56
52 59
52 63
52 64
52 65
52 66
52 67
52 68
53 56
53 57
53 63
53 64
53 65
53 66
53 67
53 69
54 55
54 57
54 58
54 59
54 60
54 61
54 62
54 66
54 67
54 69
55 60
55 61
55 62
55 63
55 65
55 68
56 60
56 61
56 62
56 63
56 65
56 67
56 68
57 61
57 62
57 64
57 66
57 67
57 69
58 66
58 68
58 69
59 65
59 66
59 68
59 69
60 62
60 63
60 68
60 69
61 63
61 65
61 67
62 63
62 66
62 68
63 66
63 67
63 69
65 67
65 68
66 67
66 69
31 56
3 37
14 45
15 25
38 40
21 69
8 30
9 51
10 11
20 68
52 65
33 39
35 55
44 54
32 63
23 28
22 66
24 49
34 53
19 42
0 4
1 27
7 60
43 46
57 59
41 62
2 67
13 29
5 47
18 48
17 36
12 16
58 64
26 61
6 50
